p cnf 21 11
a 1 2 3 0
e 4 5 6 7 8 9 0
a 10 0
e 11 12 13 0
a 14 15 16 0
e 17 0
a 18 19 0
e 20 0
a 21 0
-17 -18 5 12 -9 0
15 -12 -19 -5 -1 0
-11 20 0
14 -8 -5 0
-21 13 19 0
-17 -15 0
1 -4 17 13 0
-20 5 -10 0
21 -20 -9 0
8 16 -17 -1 0
7 1 -19 20 0
